763 883 456 576
672 792 417 537
979 1099 367 487
936 1056 409 529
704 824 502 622
720 840 437 557
769 889 360 465
976 1096 425 545
814 934 368 488
874 994 463 583
759 879 419 539
826 946 375 495
766 886 360 467
708 828 426 546
798 918 405 525
944 1064 426 546
695 815 360 402
819 939 401 521
798 918 407 527
916 1036 408 528
839 959 360 477
843 963 360 433
738 858 360 432
969 1089 413 533
744 864 433 553
781 901 373 493
761 881 395 515
831 951 360 450
769 889 368 488
803 923 406 526
